NAME:  inst5_12
TYPE: ATSP
COMMENT: Asymmetric TSP (Fischetti)
DIMENSION:  12
EDGE_WEIGHT_TYPE: EXPLICIT
EDGE_WEIGHT_FORMAT: FULL_MATRIX 
EDGE_WEIGHT_SECTION
    0  324  477  914  898  936  934  846  121  927  644  776
    843  0  463  453  503  663  221  696  523  567  514  873
    958  781  0  530  701  477  141  295  479  180  537  612
    550  793  417  0  158  368  195  803  773  448  380  448
    692  444  489  456  0  882  371  594  455  785  521  292
    754  221  148  277  415  0  344  601  405  316  734  356
    113  594  322  181  954  118  0  270  928  766  488  833
    392  195  422  180  567  236  327  0  136  371  452  874
    326  555  725  161  987  109  389  670  0  921  261  609
    936  779  338  273  415  819  967  816  626  0  890  670
    668  827  776  194  604  538  281  451  710  394  0  607
    618  862  139  282  865  523  422  852  424  135  843  0
EOF
